Geometry = GenFormat {
 <<< "in.gen"
}
Driver = ConjugateGradient{
 MaxForceComponent = 5e-5
 MaxSteps = 1
}
Hamiltonian = DFTB{
 SCC = Yes
 ThirdOrderFull = Yes
 MaxSCCIterations = 250
 Charge = 0
 MaxAngularMomentum = {
  Br = "d"
   C = "p"
  Ca = "p"
  Cl = "d"
   F = "p"
   H = "s"
   I = "d"
   K = "p"
  Mg = "p"
   N = "p"
  Na = "p"
   O = "p"
   P = "d"
   S = "d"
  Zn = "d"
 }
 HubbardDerivs = {
  Br = -0.0573
   C = -0.1492
  Ca = -0.0340
  Cl = -0.0697
   F = -0.1623
   H = -0.1857
   I = -0.0433
   K = -0.0339
  Mg = -0.02
   N = -0.1535
  Na = -0.0454
   O = -0.1575
   P = -0.14
   S = -0.11
  Zn = -0.03
 }
 SlaterKosterFiles = Type2FileNames{
  Prefix = "/home/mkubillus/slko/3ob-3-1/"
  Separator = "-"
  Suffix = ".skf"
  LowerCaseTypeName = No
 }
 Dispersion = DftD3{
  Damping = BeckeJohnson{
   a1 = 0.5719
   a2 = 3.6017
  }
  s6 = 1.0
  s8 = 0.5883
 }
 HCorrection = Damping{
  Exponent = 4.05
 }
}
ParserOptions = {
 IgnoreUnprocessedNodes = Yes
}
